certificates/rado_a9_c192_N23.cnf
c Rad2 upper bound instance: x1 + 9*x2 - x3 = 192, interval [1,23]
p cnf 23 116
1 7 22 0
-1 -7 -22 0
1 16 23 0
-1 -16 -23 0
2 8 22 0
-2 -8 -22 0
2 17 23 0
-2 -17 -23 0
3 9 22 0
-3 -9 -22 0
3 18 23 0
-3 -18 -23 0
1 4 21 0
-1 -4 -21 0
4 10 22 0
-4 -10 -22 0
4 19 23 0
-4 -19 -23 0
2 5 21 0
-2 -5 -21 0
5 11 22 0
-5 -11 -22 0
5 20 23 0
-5 -20 -23 0
3 6 21 0
-3 -6 -21 0
6 12 22 0
-6 -12 -22 0
6 21 23 0
-6 -21 -23 0
4 7 21 0
-4 -7 -21 0
7 13 22 0
-7 -13 -22 0
7 22 23 0
-7 -22 -23 0
5 8 21 0
-5 -8 -21 0
8 14 22 0
-8 -14 -22 0
8 23 0
-8 -23 0
6 9 21 0
-6 -9 -21 0
9 15 22 0
-9 -15 -22 0
7 10 21 0
-7 -10 -21 0
10 16 22 0
-10 -16 -22 0
8 11 21 0
-8 -11 -21 0
11 17 22 0
-11 -17 -22 0
9 12 21 0
-9 -12 -21 0
12 18 22 0
-12 -18 -22 0
1 13 20 0
-1 -13 -20 0
10 13 21 0
-10 -13 -21 0
13 19 22 0
-13 -19 -22 0
2 14 20 0
-2 -14 -20 0
11 14 21 0
-11 -14 -21 0
14 20 22 0
-14 -20 -22 0
3 15 20 0
-3 -15 -20 0
12 15 21 0
-12 -15 -21 0
15 21 22 0
-15 -21 -22 0
4 16 20 0
-4 -16 -20 0
13 16 21 0
-13 -16 -21 0
16 22 0
-16 -22 0
5 17 20 0
-5 -17 -20 0
14 17 21 0
-14 -17 -21 0
17 22 23 0
-17 -22 -23 0
6 18 20 0
-6 -18 -20 0
15 18 21 0
-15 -18 -21 0
7 19 20 0
-7 -19 -20 0
16 19 21 0
-16 -19 -21 0
8 20 0
-8 -20 0
17 20 21 0
-17 -20 -21 0
9 20 21 0
-9 -20 -21 0
18 21 0
-18 -21 0
1 19 22 0
-1 -19 -22 0
10 20 22 0
-10 -20 -22 0
19 21 22 0
-19 -21 -22 0
2 19 23 0
-2 -19 -23 0
11 20 23 0
-11 -20 -23 0
20 21 23 0
-20 -21 -23 0
