certificates/rado_a9_c192_N23.drat
-23 0
8 0
-20 0
5 0
11 0
21 0
0
